Optimal - objective value 33.00000000
     10 x_1_15                  1                       0
     39 x_2_27                  1                       0
     47 x_3_7                   1                       0
     80 x_4_25                  1                       0
    102 x_5_23                  1                       0
    121 x_6_13                  1                       0
    139 x_7_10                  1                       0
    172 x_8_18                  1                       0
    177 x_9_0                   1                       0
    202 x_10_5                  1                       0
    239 x_11_33                 1                      18
